p edge 43 453
e 3 1
e 3 2
e 4 1
e 4 2
e 5 1
e 5 2
e 5 4
e 6 1
e 6 2
e 6 3
e 7 3
e 7 4
e 7 6
e 8 1
e 8 2
e 8 4
e 8 5
e 8 6
e 9 6
e 9 8
e 10 2
e 10 4
e 10 7
e 10 9
e 11 1
e 11 3
e 11 4
e 11 5
e 11 6
e 11 10
e 12 3
e 12 5
e 12 9
e 12 11
e 13 2
e 13 3
e 13 4
e 13 6
e 13 7
e 13 9
e 14 1
e 14 3
e 14 4
e 14 5
e 14 7
e 14 10
e 14 12
e 15 1
e 15 5
e 15 6
e 15 8
e 15 9
e 15 11
e 16 5
e 16 7
e 16 9
e 16 10
e 16 11
e 16 14
e 17 1
e 17 8
e 17 10
e 17 12
e 17 14
e 18 3
e 18 5
e 18 7
e 18 9
e 18 10
e 18 11
e 18 12
e 18 13
e 18 16
e 18 17
e 19 2
e 19 3
e 19 4
e 19 5
e 19 6
e 19 7
e 19 8
e 19 9
e 19 11
e 19 12
e 19 14
e 19 16
e 19 17
e 19 18
e 20 2
e 20 3
e 20 4
e 20 6
e 20 7
e 20 11
e 20 12
e 20 16
e 20 18
e 21 2
e 21 4
e 21 5
e 21 9
e 21 11
e 21 12
e 21 18
e 21 20
e 22 2
e 22 3
e 22 4
e 22 5
e 22 6
e 22 8
e 22 11
e 22 13
e 22 14
e 22 16
e 22 18
e 22 19
e 22 20
e 22 21
e 23 2
e 23 3
e 23 4
e 23 5
e 23 6
e 23 7
e 23 8
e 23 10
e 23 11
e 23 12
e 23 13
e 23 16
e 23 18
e 23 20
e 23 21
e 23 22
e 24 1
e 24 2
e 24 3
e 24 6
e 24 7
e 24 8
e 24 9
e 24 10
e 24 11
e 24 13
e 24 14
e 24 16
e 24 18
e 24 20
e 25 1
e 25 3
e 25 5
e 25 7
e 25 11
e 25 13
e 25 14
e 25 15
e 25 17
e 25 18
e 25 19
e 25 20
e 25 22
e 25 23
e 25 24
e 26 1
e 26 2
e 26 3
e 26 5
e 26 9
e 26 10
e 26 11
e 26 14
e 26 15
e 26 16
e 26 19
e 26 20
e 26 22
e 27 4
e 27 7
e 27 9
e 27 16
e 27 19
e 27 20
e 27 22
e 27 24
e 27 25
e 27 26
e 28 1
e 28 4
e 28 7
e 28 14
e 28 18
e 28 19
e 28 20
e 28 21
e 28 22
e 28 23
e 28 24
e 28 26
e 28 27
e 29 2
e 29 5
e 29 9
e 29 12
e 29 13
e 29 14
e 29 15
e 29 17
e 29 18
e 29 20
e 29 22
e 29 25
e 29 26
e 29 27
e 30 1
e 30 2
e 30 3
e 30 6
e 30 8
e 30 13
e 30 15
e 30 17
e 30 19
e 31 4
e 31 6
e 31 7
e 31 8
e 31 10
e 31 12
e 31 15
e 31 18
e 31 20
e 31 22
e 31 23
e 32 2
e 32 4
e 32 5
e 32 8
e 32 10
e 32 13
e 32 18
e 32 19
e 32 21
e 32 22
e 32 23
e 32 25
e 32 31
e 33 1
e 33 6
e 33 7
e 33 9
e 33 10
e 33 12
e 33 13
e 33 14
e 33 15
e 33 16
e 33 18
e 33 19
e 33 20
e 33 21
e 33 26
e 33 27
e 33 29
e 33 30
e 33 32
e 34 3
e 34 4
e 34 6
e 34 8
e 34 10
e 34 12
e 34 14
e 34 17
e 34 18
e 34 22
e 34 23
e 34 24
e 34 25
e 34 26
e 34 28
e 34 29
e 35 1
e 35 2
e 35 3
e 35 4
e 35 7
e 35 8
e 35 9
e 35 10
e 35 11
e 35 12
e 35 14
e 35 16
e 35 17
e 35 22
e 35 26
e 35 29
e 35 30
e 35 34
e 36 1
e 36 6
e 36 7
e 36 9
e 36 11
e 36 18
e 36 22
e 36 23
e 36 27
e 36 28
e 36 29
e 36 30
e 36 32
e 36 33
e 36 34
e 37 2
e 37 3
e 37 7
e 37 8
e 37 12
e 37 15
e 37 19
e 37 22
e 37 24
e 37 25
e 37 27
e 37 29
e 37 31
e 38 2
e 38 3
e 38 9
e 38 11
e 38 12
e 38 13
e 38 17
e 38 18
e 38 21
e 38 22
e 38 23
e 38 25
e 38 29
e 38 30
e 38 32
e 38 34
e 38 36
e 38 37
e 39 1
e 39 2
e 39 3
e 39 4
e 39 6
e 39 8
e 39 9
e 39 14
e 39 16
e 39 18
e 39 19
e 39 20
e 39 21
e 39 25
e 39 28
e 39 29
e 39 35
e 39 36
e 39 37
e 39 38
e 40 3
e 40 4
e 40 5
e 40 6
e 40 8
e 40 11
e 40 12
e 40 13
e 40 16
e 40 17
e 40 18
e 40 19
e 40 20
e 40 21
e 40 24
e 40 25
e 40 27
e 40 28
e 40 29
e 40 31
e 40 32
e 40 34
e 40 35
e 40 36
e 40 37
e 41 2
e 41 4
e 41 7
e 41 8
e 41 10
e 41 11
e 41 12
e 41 13
e 41 15
e 41 16
e 41 18
e 41 19
e 41 21
e 41 24
e 41 30
e 41 31
e 41 32
e 41 34
e 41 35
e 41 36
e 41 37
e 41 38
e 41 39
e 42 3
e 42 5
e 42 6
e 42 10
e 42 12
e 42 13
e 42 14
e 42 15
e 42 16
e 42 17
e 42 18
e 42 20
e 42 21
e 42 23
e 42 24
e 42 25
e 42 29
e 42 31
e 42 32
e 42 33
e 42 35
e 42 36
e 42 37
e 42 38
e 42 41
e 43 1
e 43 2
e 43 4
e 43 7
e 43 15
e 43 16
e 43 21
e 43 23
e 43 24
e 43 29
e 43 35
e 43 36
e 43 39
e 43 41
